
Gurobi 11.0.0 (win64) logging started Sat Jun 15 10:25:22 2024

Set parameter LogFile to value "./GurobiLog/stage_2_iter_30.log"
Gurobi Optimizer version 11.0.0 build v11.0.0rc2 (win64 - Windows 10.0 (18363.2))

CPU model: Intel(R) Core(TM) i7-8700 CPU @ 3.20GHz, instruction set [SSE2|AVX|AVX2]
Thread count: 6 physical cores, 12 logical processors, using up to 1 threads

Optimize a model with 1511 rows, 20480 columns and 214053 nonzeros
Coefficient statistics:
  Matrix range     [3e-03, 7e+03]
  Objective range  [1e-01, 2e+05]
  Bounds range     [2e+00, 5e+05]
  RHS range        [1e+00, 7e+04]
LP warm-start: use basis
Iteration    Objective       Primal Inf.    Dual Inf.      Time
       0    2.3444050e+04   7.131148e+03   0.000000e+00      0s
     172    2.6345469e+04   0.000000e+00   0.000000e+00      0s

Solved in 172 iterations and 0.03 seconds (0.03 work units)
Optimal objective  2.634546866e+04
